\ENCODING=ISO-8859-1
\Problem name: IloCplex

Minimize
 obj: x1 + x2 + x3 + x4 + x5 + x6 + x7 + x8 + x9 + x10 + x11 + x12 + x13 + x14
      + x15 + x16 + x17 + x18 + x19 + x20 + x21 + x22 + x23 + x24 + x25
      + 1000000000000 x26 + x27 + x28 + x29 + x30 + x31 + x32 + x33 + x34 + x35
      + x36 + x37 + x38 + x39 + x40 + x41 + x42 + x43 + x44 + x45
      + 1000000000000 x46 + x47 + 1000000000000 x48 + 1000000000000 x49
      + 1000000000000 x50 + x51 + x52 + x53 + x54 + x55 + x56 + x57 + x58 + x59
      + x60 + x61 + x62 + x63 + x64 + x65 + x66 + x67 + x68 + x69 + x70 + x71
      + x72 + x73 + x74 + x75 + x76 + x77 + x78 + x79 + x80 + x81 + x82 + x83
      + x84 + x85 + x86 + x87 + x88 + x89 + x90 + x91 + x92 + x93 + x94 + x95
      + x96 + x97 + x98 + x99 + x100 + x101 + x102 + x103 + x104 + x105 + x106
      + x107 + x108 + x109 + x110 + x111 + x112 + x113 + x114 + x115 + x116
      + x117 + x118 + x119 + x120 + x121 + x122 + x123 + x124 + x125 + x126
      + x127 + x128 + x129 + x130 + x131 + x132 + x133 + x134 + x135 + x136
      + x137 + x138 + x139 + x140 + x141 + x142 + x143 + x144 + x145 + x146
      + x147 + x148 + x149 + x150 + x151 + x152 + x153 + x154 + x155 + x156
      + x157 + x158 + x159 + x160 + x161 + x162 + x163 + x164 + x165 + x166
      + x167 + x168 + x169 + x170 + x171 + x172 + x173
Subject To
 c1:  x1  = 1
 c2:  x2  = 1
 c3:  x3  = 1
 c4:  x4  = 1
 c5:  x5  = 1
 c6:  x6  = 1
 c7:  x7 + x155  = 1
 c8:  x8 + x148 + x153  = 1
 c9:  x9 + x139 + x147 + x152  = 1
 c10: x10 + x132 + x137 + x143  = 1
 c11: x11 + x129 + x138 + x146  = 1
 c12: x12 + x126 + x128 + x131  = 1
 c13: x13 + x123 + x125  = 1
 c14: x14 + x120 + x121 + x144  = 1
 c15: x15 + x117 + x119 + x135 + x165  = 1
 c16: x16 + x112 + x113 + x141  = 1
 c17: x17 + x110 + x116 + x162  = 1
 c18: x18 + x106 + x107 + x114 + x115 + x163 + x166  = 1
 c19: x19 + x104 + x105 + x122 + x127 + x161  = 1
 c20: x20 + x101 + x102 + x108  = 1
 c21: x21 + x98 + x99 + x111 + x158  = 1
 c22: x22 + x97 + x100  = 1
 c23: x23 + x96 + x97 + x150 + x164  = 1
 c24: x24 + x93 + x96 + x98 + x157  = 1
 c25: x25 + x92 + x95 + x108 + x145 + x159  = 1
 c26: x26 + x90 + x92 + x102 + x130 + x133 + x134 + x136 + x140 + x173  = 1
 c27: x27 + x88 + x90 + x93 + x103 + x154 + x160 + x171  = 1
 c28: x28 + x84 + x85 + x88 + x151  = 1
 c29: x29 + x81 + x84 + x94 + x109 + x118 + x124 + x141 + x162  = 1
 c30: x30 + x62 + x81 + x85 + x103 + x110 + x163  = 1
 c31: x31 + x81 + x83 + x86 + x87 + x89 + x111 + x112 + x134 + x136 + x151
      + x156 + x159 + x160 + x165  = 1
 c32: x32 + x78 + x79 + x80 + x87 + x105 + x130 + x140 + x149 + x151 + x154
      + x167 + x168 + x169 + x170 + x171 + x172  = 1
 c33: x33 + x61 + x76 + x77 + x78 + x89 + x91 + x109 + x117 + x145 + x166
      + x168 + x169 + x172  = 1
 c34: x34 + x74 + x75 + x76 + x77 + x79 + x83 + x91 + x118 + x124 + x127 + x140
      + x142 + x144 + x156 + x157  = 1
 c35: x35 + x72 + x74 + x75 + x78 + x82 + x86 + x104 + x120 + x142 + x164
      + x173  = 1
 c36: x36 + x68 + x69 + x72 + x73 + x79 + x82 + x100 + x101 + x124 + x135
      + x136 + x142 + x145 + x154  = 1
 c37: x37 + x65 + x68 + x69 + x71 + x77 + x82 + x95 + x107 + x118 + x123 + x133
      + x150 + x159  = 1
 c38: x38 + x60 + x64 + x66 + x67 + x68 + x76 + x80 + x85 + x99 + x106 + x109
      + x122 + x126 + x149 + x158 + x167 + x168 + x170 + x172  = 1
 c39: x39 + x60 + x64 + x65 + x67 + x69 + x73 + x80 + x91 + x94 + x114 + x116
      + x131 + x149 + x157 + x158  = 1
 c40: x40 + x60 + x64 + x65 + x66 + x70 + x71 + x74 + x89 + x94 + x100 + x103
      + x113 + x125 + x133 + x149 + x150 + x156 + x160 + x161 + x164  = 1
 c41: x41 + x60 + x63 + x66 + x67 + x70 + x71 + x72 + x73 + x75 + x83 + x87
      + x94 + x115 + x134 + x167 + x169 + x170 + x171  = 1
 c42: x42 + x52 + x53 + x54 + x55 + x56 + x57 + x58 + x59 + x61 + x63 + x64
      + x68 + x70 + x86 + x88 + x130 + x156  = 1
 c43: x43 + x51 + x52 + x53 + x55 + x56 + x57 + x58 + x59 + x61 + x62 + x66
      + x70 + x75 + x82 + x84 + x91 + x95 + x111 + x115 + x119 + x161  = 1
 c44: x44 + x51 + x52 + x53 + x54 + x56 + x57 + x58 + x59 + x61 + x62 + x63
      + x71 + x73 + x76 + x80 + x83 + x92 + x114 + x118 + x132 + x146  = 1
 c45: x45 + x51 + x52 + x53 + x54 + x55 + x57 + x58 + x59 + x61 + x62 + x67
      + x71 + x72 + x79 + x89 + x95 + x122 + x128 + x129 + x139  = 1
 c46: x46 + x51 + x52 + x53 + x54 + x55 + x56 + x58 + x59 + x62 + x63 + x65
      + x67 + x70 + x73 + x74 + x77 + x86 + x93 + x99 + x104 + x121 + x124
      + x133 + x137 + x138 + x167 + x169 + x170 + x173  = 1
 c47: x47 + x51 + x52 + x53 + x54 + x55 + x56 + x57 + x59 + x62 + x63 + x64
      + x69 + x84 + x87 + x90 + x99 + x101 + x107 + x109 + x113 + x116 + x121
      + x142 + x147 + x148 + x172  = 1
 c48: x48 + x51 + x52 + x53 + x54 + x55 + x56 + x57 + x58 + x60 + x66 + x67
      + x69 + x70 + x74 + x78 + x83 + x101 + x105 + x106 + x119 + x128 + x134
      + x142 + x143 + x160 + x166 + x167 + x168 + x169 + x170 + x171 + x172
      + x173  = 1
 c49: x49 + x51 + x52 + x54 + x55 + x56 + x57 + x58 + x59 + x61 + x63 + x65
      + x66 + x69 + x72 + x77 + x80 + x87 + x90 + x106 + x119 + x121 + x127
      + x130 + x143 + x152 + x153 + x155 + x168 + x170 + x173  = 1
 c50: x50 + x51 + x53 + x54 + x55 + x56 + x57 + x58 + x59 + x60 + x65 + x68
      + x72 + x75 + x76 + x81 + x99 + x107 + x112 + x125 + x137 + x138 + x150
      + x152 + x153 + x154 + x157 + x163  = 1
Bounds
      x51 = 0
      x52 = 0
      x53 = 0
      x54 = 0
      x55 = 0
      x56 = 0
 0 <= x57 <= 1
 0 <= x58 <= 1
      x59 = 0
      x62 = 0
      x63 = 0
 0 <= x65 <= 1
 0 <= x66 <= 1
 0 <= x69 <= 1
 0 <= x72 <= 1
      x76 = 0
      x77 = 0
      x79 = 0
      x80 = 0
      x87 = 0
      x90 = 0
      x91 = 0
      x99 = 0
      x104 = 0
      x105 = 0
      x106 = 0
      x108 = 0
      x109 = 0
 0 <= x110 <= 1
      x112 = 0
      x114 = 0
      x115 = 0
      x117 = 0
 0 <= x119 <= 1
      x120 = 0
      x121 = 0
      x122 = 0
      x123 = 0
      x126 = 0
      x127 = 0
      x130 = 0
      x131 = 0
      x132 = 0
      x137 = 0
      x139 = 0
      x140 = 0
      x141 = 0
 0 <= x143 <= 1
      x144 = 0
      x145 = 0
      x146 = 0
      x147 = 0
      x148 = 0
      x149 = 0
 0 <= x152 <= 1
 0 <= x153 <= 1
      x155 = 0
      x159 = 0
      x161 = 0
      x165 = 0
      x166 = 0
      x167 = 0
 0 <= x168 <= 1
 0 <= x170 <= 1
      x172 = 0
 0 <= x173 <= 1
End
